(set-logic ALL)
(set-option :produce-models true)
(declare-sort BoundSet 0)
(declare-sort UnboundSet 0)
(set-option :finite-model-find true)
(declare-fun IsReading (BoundSet BoundSet) Bool)
(declare-fun IsCarrying (BoundSet BoundSet) Bool)
(assert (not (=> (exists ((a BoundSet)) (exists ((b BoundSet)) (IsReading a b))) (exists ((c BoundSet)) (exists ((a BoundSet)) (IsCarrying a c))))))
(check-sat)
(get-model)